r_100_25_5
100
  0   0   0   0   0   0  31   0  61   0   0  79   0   0   0   0  62   0   0   0   0   0   0  85   0   0  31   0   0   0   0   0  89   0   0  34   0   0   0   0   0   0   0   0   0  94   0   0   0   0   0   0   0  72   0  76  32   0   0   0   0   0   0   0   0   0   0   0   0   0   0   0   0  32   0   0   0   0   0  60   0   0   0   0  81  19   0   0   0   0   0   0   0   0   0   0   0  70   0   0 
  0   0   0   0  41  34   0   0   0   0   0   0   0   0   0  94   0   0   0   0   0   0   0   0  50   0   0   0   0   0  18   0   0   0  75   0   0   0  59   0   0   0   0   0   0   0   0   0   0   0  41   0   0   0  13  40   0   0   0  90   0   0  89   0   0   0   0   0   0  42   0 100   0   0   0   0   0   0   0   0   0   0   0   0   0   0   8  38  34   0   0   0   0   0   0   0   0   0   0 
  0   0  14   0   0  17   0   6  57   0   0   0  15  13   0   0   0   0  48   0  77   0   0   0  75  84  78   0   0   0   0  82   0   0   0   0   0   0   0   0   0  94   0   0  92   0   0   0  96  26  88  30   0   0  29   0   0   0   0   0   1   0   0   0   0   0  73   0   0  36  56  50   0   0   0  50   0   0   0   0   0   0   0   0   0  85   0   0   0   0   0   0   0  64  32   0   0   0 
  0  17   0   0  86   0   0   0   0   0   0   0   0   0   0   0   0   0  90   0  51   0   0   0  22   0   0   0   0  66   0   0   0   0  71  24   0   0   0   0   0   0   0  76  83   0   5   0   0  46   0   0  37   0   0   0  73   0   0   0   0   0   0   0   0   0   0   0   0   0   0   0  65   0   0   0   0   0   0   0   0   0   0   0  76   0   0   0  29   0   0   0   0   0  70   0   0 
  0   0   0   0   0   0   0  82  66   0   0  15   0   0   0   0   0  53   0  25   0   0   0   0   0  12   0   0   0   0   0   0   0  71   0   0  75  24   0   0  56   0   0  74   0   0  51   0   0   0   0  73   0   0  60  85   0   0   0   0   0   0   0   0   0   0   0   0   0  39   0   0   0   0   0   0  54   0   0   7  56   0   0   0   0   0   0  36   0  16  54   0   0   0   0  21 
  0   0  99   0   0  61  34   0  43  19  65   0  52   0   0  56   0   0   0   0   0  28   0   0   0   0  53  60  75   0  52   0   0   0   0  67   0  35   0  26   0   0   0   0   0  22   0  29  78   3   0   0   0   0   0  67   0   0   0  34   0   0   0   0  91   0  64   0   0   0  83   0   0   0   0  66   0  96   0   0   0   0   0   0   0   0   0   0   0  48   0   0   0   2   0 
  0   0   0   0  29   0   0  27   0   0   5   0   0   0   0  23   0   0  89   0   0   0   0   0   0   0   0   0   0   0   0  64  13   3   0   0   0  27   0   0  70   0   0   0   0   0   0   0  91  90  17   0   0  95   0   0   0   0  87  43  91  35  15  98   0   0   0   0   0  20   0   0   0  93   0   0   9   0   0   0   0   0   0   0  28   0  76   0  68  52   0   0   0   0 
  0   0   0   0   0  30   0   0  60   4  51   0  13   0   0   0   0   0   0   0   0  89  66  73   0   8   0   0   0   0   0   0   0   0  46   0  91   0   9  63   0   0   0   0   0   0  78   0   0   0  97   0   0   0  82  23   9   0   0  81   0   0   6  96  99   0  78   0   0  22   0   0   0  55   0   0  33   0   0  93   0   0   0  26   0   0   0   0   0   0   0   0   0 
  0   0   0   0   0   0   0   5  68  52   0   0   0  84   0  52   0   0   0   0   0   0   0   0   0   0   0   0   0   0   0   0  56   0   0   0   0   0   0   0   0   0   0   0  32   0   0   0   0  40   0  92   0   0   0   0   0   0  99  96   0   0   0   0  24   0  16   0   0   0   0   0  48   0   0   0   0   0   0   0   0  96   0   0   0   0   0   0   0   0   0  79 
  0  13   0   5   0   0   0   0   0   0   0  71   0   0   0   0   0  56   0   0   0  10  27   0   0  56   0   0   0   0   0  39  88   0   0   0   0   0   0   0   0   0   0   0  85   0   0   0  63 100   0   0   0   0   0   0   0   0   0  51   0   0   0   0   0   0   0   0   2   0   0   0   0  52   0   0   0   0   0   0   0   0   0   0   0   0   0  17  40   0   0 
  0   0  66   0   0   0  10   0   0   0   0   0   0   0   0   0  76   0   0   0   0   0   0   0   0   0   0   0   0   0   0   0   0   0  27   0   0   0   3   0   0   0   0   0  68   0   0   0   0   0   0   0  96   0   0   0   0  74   0   0  16   0  24   0   0   0   0   0   0  33   0   0   0  45   0   0   0   0   0   0   0  12   0   0   0   0   0   0   0   0 
  0   0  40   2   0   0  26  11   0   0   0  22   0   0   0  15  23   0  26  89   0   0   0  82   0   0  66   0   0   0   0  59   0  58   0   0  96   0   0   0   0   0   0   0  80   0   0   0   0   0   0   0   0   0   0   0  31  96   0   0  50   0  20   0  78   0  57   0   0   0   0  95   0   0   0   0   0   0   0  69   0   0   0   0   0   0   0   0   0 
  0   0  78   0  75   0  96   0   0   0   0  25   0   0   0   0  10  17   0  46   0  80   0  13   0   0   0  78  59   0   0   0   0   0   0   0  72   0   0   0   0   0   0   0  55   0   0   0   0   0   0  98   0   0   0  83   0   0   0   0   0   0   0  52   0   0   0   0   0  51  13   0  20  77   0   0   0  82   0   0   0   0  68   0   0   0  53   0 
  0   3  57   0   0   0   0   0   0   0   0   0   0   0   0  39   0   0  60   0   0   0   0   0   0  63   0   0   0   0   0  93   0   0   0   0  21   0  22   0   0   0   0   0  73   0   0   0   0   0  51   0   0   0  73  96   0  62   0   0   0   0   0   0   0   0   0   0   0  60  37   0   0   0   0   0   0  21   0   0   0   0   0   0   0   0   0 
  0  50  35  72  81   0   0   0   0   0   0   0   0  97   0  97   0   0   0   0  84  10   0   0   0  16   0   0  66   0   0   0   0   0   0   0   0   0   0   0   0   0   0   0   0   0  68   0   0   0   0  35   0   0   0  76   0  10   0  45  98   0   0   0   0  51   4  51   0   0   0   0   0   0   0  47   0  96   0  19   0   0   0   0   0  70 
  0   0  13   0   0   0  75   0   0   0   0   0   0   0  88   0   0   0  40  42   0   0  48   0   1   0   0   0   0   0   0   0   0   0   9   0   0   0   0  36  26   0  73   0   0   0   0  42  27   0  54   0  72   0   0   0   0   0   0  59  45   0  35   0   0   0   0   0   0   0  32   0  72  44   0   0  64   0   0   0  23   0  40   0   0 
 21   0   0  26   0  24   0   0  32   0   0   0  56  32  16  78   0   0  69   0   0   0   0   0   0   0   0   0   0   0  76   0   0   0   0   0   0   6   0   0   0   0   0   0   0   0   0   0   0   0   0   0   0   0   0   0   0   0   0   0   0   0  29   0   0  72   0   0   0   0  96  84   0   0  24   0   0   0   0   0   0   0   0   0 
  0   0   0   0   0   0  20  97   0   0  48   0  94   0   0   0  64   0  17  92   0   0   0  69  17   0   0   0   0   0   0  87  17   0  78   0   0   0  28  33  34   0  73   0   0   0   0   0   0  22   0   0   0   0   0   0   0   0   0   0   0   0  25   0   0  74  33   0   0   4   0   0   0   0  72   0  33   0   0  65   0   0   0 
  0   0   0   3   0   0   0   0   0   0   0   0  20   0   0   0   0   0   0   0   0   0   0  12   0   0   0   0   0   0   0   0   0   0   0   0  82  35   0  30   0   0   0  28   0   0   0   0   0   0   0   0   0  73   0   0   0   0   0   0   0  21   0   0   0   0   0   0  87   0   0   0   0   0  41   0   0   0   0  51   0   0 
  0   0   0   0   2   0   0   0   0   0   7   0  98   0   0   0  67   0  33   0  22   4   0   0   6   0   0   0   0   6   0   0   0   0   0   0   0   0   0   0   0   0   0  23  16  82  39   0   0  66   0   0   0   0   0  27   0   0   0   7   0   0   5   0  77   0   0   0   0   0   0   0  36   0  66   0   0   0  42   0   0 
  0  92  44  26   0   0   0   0   0   0  40   9   0   0  67  68   0   0  77   0  79   0   0   0   0  52   0   0   0  95   0   0   0  67   0   0   0  14   0   0  65   0   0  44  77  55  63  58  47   0  58   0   0  59   0   0   0   0   0   0  27  48   0   0  48   0   0  24   0   0  76   0   0   0   0   0   0   1   0   0 
  8   0   0   4   0  72   0   0   0  87   0   0   0   0   0   0   0   0   0   0  99   0  75  80   0   0  81  62   0   0   0   0   0   0  96   0   0   0  82   0   0  40   0   0   0   6   0  80   0   0   1  83   0   0   0   0  89  90   0   0  35  43   0   0   0   0   0   0   0   0   0  13   0  24   0   0   0  91   0 
  0  86   0   0   0   0   0  57   0   0  59  49   0   0  96   0   0   0  87   0   0   0   0  77  17   0  49   0   0   0   0   0   9   0  12  73   0  48   0   0   0   0   0  60   0   0   0   7   0   0   0   0  81   0  41   0  43   0   0   4   0  30   0   0  14  41   0   0   0   0  60  78  57   0   0   0   0   0 
  0   0  28   0   0  44   0   0   0  79   0   0   0   0   0   0   0  75   0  37   0   0   0   0  16  75  51   0   0   0   0  69   0   0  95   0  92   0   0   0   0   0  12  19   0   0   0   0   0   0   0   0   0   0   0   0   0  52  56  40  24   0   0   0   3  50   0   0   0   0  16   0   2   9  83   0   0 
  0   0  39   0   0   0   0   0   0  91  67   0   0   0   0  13   0   0   0  93  21  65  94  82   0   0   0   0   0   0   0  74   0   0  57  75   0   0  51   0   7  23   0   0   1   0   0  37   0   0  55   0  50   0   0   0   0   0   0   0  99   0   0   0  72   0   0   0  58   0   0   0  65  60   0  46 
  0   0   0   0   0   0  82   0  35  61  67   0  55  15   0   0  52   0   0   0  26   0   0   0   0  18   0   0   0   0  58   0  47  34   0   0   0   0  63  47   0   0   0   0   0   0  86   0   0   0   0   0   0   0  89   0   1   0   0   0   0   0   0   0  35   0   0   0   0   0   0   0  57   0   0 
  0   0   0   9   0   0  93  63   0   0  83   0   0  23   0   0  45   0   0   0   0  68  22   0   0   0   0   0   0   0   0   0   0   0   0   0  29   0   0  72  59   7   0  26  73  68   0   0   0   0 100  19   0   0   0   0   0   0   0   0   0   0   0  50  10   0   0   0   0   0  74   0   0   0 
 34   0   0   0   0   0   0   0   0  31   0   0   0   0   0   0   0  93   0   8   0   0   0   0   0   0   0   0  79   0   0   0   0   0   0   0   0  63   0   0   0   0   0  77   0   0   0   0   0   0   0   0   0   0   0   0   0   0   0  87   0   0   0   0  73   0   0   0   0  83   0   0   0 
 38   0  56  86   0   0   0   0   0   0   0   0   0   0   0  32   0   0  34   0  28   0   0  92   0   0   0   0   0   0   8  75   0   0   0   0   0 100  34   0   0   0   0  24  37   4   6   0   0  84  90   0  65   0   0   0   0   0   0   0   0   0   0  82   0   0   0   0   0   0   0 100 
  0   0   0  97  76   1   0   0   0   0  44   0   0   0   0   0  45   0   0   0  87  22   0   7  15   0   0   0   0  64   0   0  76   0   0   0   0   0   0   0  25   0   0   0   0   0   9   0   0  55   0  45   0  13   0   0  25   0  35   0   0   0  88   0  59   0   0  12   0   0   0 
  0   0   0   0   0  67   0   0   0   0   0   0   0   0   0   0   0   0   0   0   0   0  62   0   0  84   0   0   0  63   0  51   0   0   0   0  65   0   0  52   0   0   0   6   0   1  22   0  56   0  72   0   0   0   0  53   0  52   0   0  81   0   0   0  86   0   0   0 100  28 
  0   0   0   0   0   0   0   0  84   0   0   0   0   0   0   0  20   0   0   0   0   0   0   0   0   0   0   1  73   0   0   0   0  68  71  88   1   0   0   0   0  40   0   0   0   0   4   0   0   0   7   0   0   0   0  77   0   0   0   0   0   8  12   0   0  98   1   0   0 
  0  63   0   0   0   0  68 100   0   0   0   0  55   0  88  30   0   0   0  11   0  89  51  42   0  47   0   0   0   0   0  54   0   0  60   0   0  86   0  24   0   0   0   0   6   0  27   0   5   4   0   4   0   0   0   0  60   0   0   0  30   0  42   0   0   0   0   0 
  0   0   0   0   0  17   0  85   0   0   0   0   0   0   0   0   0  78   0   0   0   0  40   0   0  42   0  38  28   0  85   0   0   0   0  37   0   0   0   0   0   0   0   0  39   5   0   0   0   0  60   0  14   0   0   0  82  35  94  43  76  96  58   0   0   0   0 
  0   0   0  42   0   0  73   0   0   0   0   0   0   0   0   0   0   0  73   0   0  56   0   0   0  25   0   0   0   0   0   0   0  28  86   0   0   0   0   0   0  89   0  38   0   0   0   0   0  15   0   0  95   0  52   0   0   0   0   0   0   0  11   0   0   0 
  0   0   0   0   0  90   0   0   0   0   0   0  64   0  67   0  41  45  23   0   0   0   0  79   0   0  47   0  40   0  30   0   0   0  80   0   0  32   0   0  80   0   0   0   0   0   9   8   0   0   0   0   0   0  32   0   0   0   0   0   0   0   0   0   0 
 78   0   0   0  82  98  94  67   0   0   0   0   0   0  26   0  24   0  59   0   0   0   0   0   0   0   0   0  49   0   0   0   0  76  73   0  85  25   0  89  20  35   0   0  41   0  72   0  37   0   0  73   0   0   0  95   0   0  29   0   0   0   0   0 
 25   0   0   0   0   0   0   0   0   0   0   0   0   0   0   0   0   0   0   0   0   0   0   0  66  96   0   0  33   0   0   0   0   0   0   0   0   0  21   0   0   0  41  47  76  32   0   0   0   0   0   5   0   0   0   0   0   0  79   0   0   0   0 
  0   0  61   0   0   0   0 100   0  67  15   0   0  93   0   0  94  36   0   0  37   0   0   0   0   0   0   0   0  63   0  57  57   0   0  12   0   0   0   0   0  13  40   0  51   0   0  94   0   0  72   0  26  62   0   0   0   0  72   0   0   0 
  0   0   0   0   0  86  41   0   0  16  17   0   0  55   0   0   0   0  50   0   0   0   0   0   0   0   4   0   0   0   0  80   0  62   0   0  45   0   0  88   0   0  92  40   0   0  33   0   0  38   0   0   0   0   0   0   0   0  18  81   0 
  0   0   0  28   0   0   0  63  94   0   0   0   0   0  31   0   0   0  89   0   0   0  44   0   0   0   0   0   0  14  33   0   0   0  24   0  85  79   0   0   0   8   0   0   0   0   0  59   0   0 100   0   0   0   0   0   0   0   0  53 
 98   0   0   0   0  11  91   0   0   0   0   0   0   0  67  73  30   0   0   0   0   0   0   0   0   0   0   0   0   0   0   6   0  22   0   0   0   0  69   0   0   0  25   0   0   0   0  71   0   0   0   0  64  10   0   0   0   0   4 
 35   0   0   0  48   0   0   0   0   0   0   0  50   0   0   0   0   0   2   0   0   0  99  67   0  15  95  68   0   0   0   0   0   0   7   0  28   0   0   0   0   0   0   0  55  98   0   0   0   0   0   0   0   0   0   0  64  23 
  0  22  96   0   0   0  27  72   0   0   0  83   0   0   6  48   0   0   0   0   0   0   0   0   0   0   0   0   0   0   0   0  87   0   0   0  56   0  37   0   0   0   0  69   0   0   0   0   0  93   0   0   0  62   0   0  42 
  0   0   0   0   0   0   0   0   0   0   0  45   0  82  72   0   0  73   0   0   0   0   6   0   0   0   0  62   0  65   0   0   0   0   0  59  89   0   0   0   0   0  33   0   0  12   0   0   0   0   0  38   0  19   0  98 
  0   0   0   2   0   0   0   0   0  36  69   0  73   0   0   0   0  24   0   0   0   0   0   0   0   0  88   0   0   0   0   0 100   0   0   0   0   0  45   0   0   0  51  97  70   0  83  16   0   0   0   0   0  26  94 
 67   0   0  35  34   0   0   0   0   0   0  29   0   0   0   0   0   0   0   0  54   0   0   4   0   0   0  68   0   0   0   0   0   0   0   0   0  88   0   9   0   0   0   0  76   0   0   0  37   0  38   0   0   0 
  0   0   0   0   0   0   0   0  62   0   0   0   0   0   0   0   0   0   0   0   0   0   0   0   0  92   0   0   0   0   0   0   0   0   0   0   0   0   0   0  52   0   0  54   0   0   0   0   7 100   0   0   0 
  0  62  12  25   0  86   0   0   0   0   0  73   1  23   0   0   0   0   0   0   0   0   0  69  50   0   0   0   0   0   0   0   0   0  83   0   0  16   0   0   0   0   0  98   0   0   0   0   0  63   0   0 
 83   0   0   0   4  36  61   0   0   0   0   0   0   0   0   0   0   0   0  88  57   0  33   0  40   0   0   0  35  22   0   0   0   0   0  44   0   0  20   0   0  85   0   0  99   0   0   0  84   0   0 
  0   0  18   0   0   0   0   0   0  41  65   0   0  68  20   0   0   0   0   7   0   0   0   0   0  54   0   0   0  48   0   0   0   0  31   0   0  31   0   0  32   0   0   0   0   0  37   0   0   0 
 68  62   0  31   0   0   0   0   0   0   2   0   0   0   0   6   0   0   0  33   0  78   0  65  88  52   0   0   0   0   0  71   0   0   0   0  64   0   0   0   0   0  23   0   0   0   0   0  29 
 60   0   0   0   0  34  88   0  60   0   0  45   0   0  36   0  69  17  70  90  60   0  65   0   0   0  92   0   0   0   0   0   0   3   0   0   0  46   0   0   0   0   0   0   0   0   0   0 
  0   0   0   0   0  41   0   0   0   0  15   0   0  65   0   0   0   0   0  20   0  77   0   0   0   0   0   0   0   0  29   0  64   0   0   0  60   0   0  66   0  42   0   0   0   0   0 
  0  84   0   0   0   0   0  25  43   0   0   0   0  89   0  11  39   2  13   0   0   0   0   0   0   0   0   0   0   3   0   0   0   0   0  92   0   0   0   0   0   0   0  43   0   0 
  0   0  74   0   0  35  17   0   0   0  86   0   0   0   0   0   0   0   0   0   0   0   0  69   0   0   0   0   0   0  47   0   0   0   0  32   0  33   0   0   0   0   0   0   0 
  0   0   0   0   0   0   8   0  54   0   0   0   0  55  98   0   0   0   0   0   0   0   0  55   0  54   0   0   0   0   0   0   0  79   0   0   0   0   0   0   0   0   0  23 
 43   0   0   0  26   0   0   0   0   0   0   1   0   0   0  79   0   0   0  13   0   0   8   0   0   0   0   0  21   0   0   0   0   0  61   0   0  14   2  90   0  64   0 
  0   0   0  61   0  65 100   0   0  11   0  36   0   0   0  38   3  39   0   0   0   0  15   0   0   0   0   0   0   0   0   0   0   0   0  50   0   0  22  40   0  94 
 22   0   0  37   0  75   0   1  99   0   0   0  11  71  91   0   0  20   0   0   0   0   0   0   0   0   0   0  71   0   0  60   0   0  42   0  69   0   0   0   0 
  0   0   0   0   0   0   0  38  21   0   0   0   0   0   0  44   0  34   0   0   0   1   0   0  35   0  48   0   0   0   0  55   0   0   0   0   0   0   0  78 
  0   0   0  38   7   0   0   0  97   0   0  65   0   0   0   0   0   0   0  73  37  85  58   0   1   0   0  73   0   0   0   0  53   0   0   0   6  89   0 
  0   0   0  57   0   0  60  91   0  73  21   0   0   0   0   0   0   0   0   0  53   0  27  66   0   0  72   0   0   0   0  14   0   0   0  24   0  37 
 36   0   0   0   0   0  38   0  79  54   0   0   0  93   0  96   0   0  10   0   0   0   0   0   0   0   0  21   0   0  95   0  80   0  39   0  22 
  0   0   0   0   0   0   0   0   0   0   0  61   0   0   0   0   0  56   0  56   0   0   0   0   0   0   0   0  79   0  35   0  49   0  28  99 
  0   0   0  42  98   0   0   0  86   0   0  12   0   0  94   0   0  70  26  90   0  69   0  22   0   0   0  22   0   0   0   0  22   0   0 
  0   0   0   0   0   0   0  74   0   0   0   0   0   0   0   0  87   0   0   0   0   0   0   0  58   0   0   0   0   0  92   0  96   0 
  0   0   0  29   0   0   0   0  36  52   0  80  90   0   0   0   0   0   0   0   0   0   0  48   0  29   0   0   0  85   0  44   0 
  0  46   0   0   0   8  56  31 100   0   0   0   0  60   6   0   0   0   0   0   0   0   0   0   0  30  26   0   0  65  63   0 
  0   0   0   0   0   0   0   0  88  10   0  68  51  61   0   0   7   0   0   0  27  45   6   0  71   0   0   0  22   0   0 
 39   0  98   0  44   0   0   0   0   0   0   0   0   0   0   0   0  33   0   0   0   0   0   0   0   0  51   0  26  58 
  0   0   0   0   0   0  76   0   0   0   0   0   0  29   0   0  35  92   0  23  18  70  71   0   0   0   0  90   0 
  0   0   0   0   0   0  97   0  44  26   0   0   0  56   0  99  82   0   0   0   0   0   0   4   0   0   0   0 
  0   0  69   0   0   0   0   0   0  68   0   0   0   0   0   0  58  51   0  90  32  93   0  30  25   0  17 
  0   0   0   6   0   0  86   0   0   0   0  35   0   1  54   0  69   0   0   0   0   0   0   0  29   0 
  0   0   0  33  51   0   0   0   0   0   0   0   0   0   0   0  26   0   0   0   0  29   0 100  54 
  0   0 100   0   0   0  92   0   0   0   0  63  94  75   0   0   0  64   0   0   0  89  81   0 
 96  44   0   0   0  57   0   0   0  76   0   0   5  68  77   3  98   0   0   0   0   0   0 
  0   0   0   0   0   0   0   0  50   0   0   0  49   0   0   0   0   0  47   0   0   0 
  0   0   0   0  56   0   0   0   0   0   0   0   0   0   0   7  34   0   0   0   0 
  0   0   0   0  35  62   2  91   0   0   0   0   0   0  40   0   0   0  20  31 
  0  42   0   0  91   0  48   0   0   0   0   0   0  24   0   0   0  48  23 
  0   0   0   0   0   0  85   0   0   0   0   0   0   0   0   0   0   0 
 46  20   0   0   0  73   0  41   0   0   0   0   0   0   0   0   0 
  0   0   0   0  38   0   0   0   0   0  58   0   0   0   0   0 
  0   0   0   0   0   0   0  38   0  85   0   0   0   0   0 
 35   0   0   0   0   0   0   0  91   0   0  61   0   0 
 14   0   0   0   0   0  14   0   0   0   0   0   0 
 75   0  90   0  81   0  55  60   0   0  73   0 
 50  38   0   0   0   0   0   0  35   0  12 
 58   0   0  99   0  75   0   0  49  48 
  0   0   0  45   0   0  38   0   0 
  0   0   0  30   0   0   0   0 
  0   0   0   0   0   0   0 
 18   0   0  60  64   0 
  0   0   0   0   0 
  0   0   0   0 
 11  65   0 
  0  66 
  0 

0
2536
 44  48   7  25  16  45  22  28  36  31   9  24  31  25  38  44  11   6  39  40  38  48  23  31   8  26   3  11  11   3  34  46  20  13   7  44  50  40  11   9  49   4  49  28   6  11  33  38  31  46  21  27  41  11   7  30  38  23  47   6  46  15  19  43  44  47  46  21  10  25  46  42  49  29  11  47  40  29  22   8  36  20  23  49  23  25  40  23  26  35   5  13  12  44   6  20  19   4  19  42 

Comments

Density             : 25.00 %

